data/solutions/planning/wellformed/moderate/weighting/wellformed_moderate_instance16_cplex.sol
Elapsed time: 0.08
Nodes explored: 806
Nodes left: 421
Relative gap: 0.004
Upper bound: 41913.0
Lower bound: 41911
C[0]=5988.0
C[1]=5987.0
C[2]=5987.0
y[0]=2
y[1]=0
y[2]=0
y[3]=2
y[4]=1
y[5]=1
y[6]=1
y[7]=2
y[8]=2
y[9]=0
y[10]=0
y[11]=1
y[12]=2
y[13]=2
y[14]=2
y[15]=1
y[16]=1
y[17]=0
y[18]=2
y[19]=2
y[20]=1
y[21]=2
y[22]=1
y[23]=2
y[24]=1
y[25]=2
y[26]=2
y[27]=0
y[28]=0
y[29]=2
y[30]=1
y[31]=0
y[32]=0
y[33]=0
y[34]=0
y[35]=1
y[36]=1
y[37]=0
y[38]=0
y[39]=0
