data/solutions/planning/wellformed/moderate/weighting/wellformed_moderate_instance16_cplex.log

Log started (V12.6.3.0) Fri Mar  2 12:42:24 2018

New value for default parallel thread count: 1

Problem '/tmp/tmpN4AjaZ.pyomo.lp' read.
Read time = 0.00 sec. (0.01 ticks)

Problem name         : /tmp/tmpN4AjaZ.pyomo.lp
Objective sense      : Minimize
Variables            :     124  [Nneg: 4,  Binary: 120]
Objective nonzeros   :       3
Linear constraints   :      46  [Less: 2,  Equal: 44]
  Nonzeros           :     248
  RHS nonzeros       :      41

Variables            : Min LB: 0.000000         Max UB: 1.000000       
Objective nonzeros   : Min   : 1.000000         Max   : 4.000000       
Linear constraints   :
  Nonzeros           : Min   : 1.000000         Max   : 893.0000       
  RHS nonzeros       : Min   : 1.000000         Max   : 1.000000       
Found incumbent of value 71848.000000 after 0.00 sec. (0.01 ticks)
Tried aggregator 2 times.
MIP Presolve eliminated 1 rows and 1 columns.
Aggregator did 2 substitutions.
Reduced MIP has 43 rows, 121 columns, and 243 nonzeros.
Reduced MIP has 120 binaries, 0 generals, 0 SOSs, and 0 indicators.
Presolve time = 0.00 sec. (0.31 ticks)
Probing fixed 0 vars, tightened 5 bounds.
Probing time = 0.00 sec. (0.13 ticks)
Tried aggregator 1 time.
Reduced MIP has 43 rows, 121 columns, and 243 nonzeros.
Reduced MIP has 120 binaries, 1 generals, 0 SOSs, and 0 indicators.
Presolve time = 0.00 sec. (0.16 ticks)
Probing time = 0.00 sec. (0.08 ticks)
Clique table members: 40.
MIP emphasis: balance optimality and feasibility.
MIP search method: dynamic search.
Parallel mode: none, using 1 thread.
Root relaxation solution time = 0.00 sec. (0.13 ticks)

        Nodes                                         Cuts/
   Node  Left     Objective  IInf  Best Integer    Best Bound    ItCnt     Gap

*     0+    0                        71848.0000        0.0000           100.00%
      0     0    41911.3333     5    71848.0000    41911.3333       13   41.67%
*     0+    0                        41979.0000    41911.3333             0.16%
      0     0    41911.3333     5    41979.0000       Cuts: 6       19    0.16%
      0     0    41911.3333     9    41979.0000       Cuts: 5       22    0.16%
*     0+    0                        41977.0000    41911.3333             0.16%
      0     2    41911.3333     9    41977.0000    41911.3333       22    0.16%
Elapsed time = 0.01 sec. (3.88 ticks, tree = 0.01 MB, solutions = 3)
*    60+   48                        41973.0000    41911.3333             0.15%
*    65    49      integral     0    41947.0000    41911.3333      151    0.09%
*   130+   99                        41943.0000    41911.3333             0.08%
*   230+  161                        41939.0000    41911.3333             0.07%
*   530   302      integral     0    41930.0000    41911.3333      953    0.04%
*   706   374      integral     0    41928.0000    41911.3333     1266    0.04%
*   806+  420                        41923.0000    41911.3333             0.03%
*   806+  420                        41913.0000    41911.3333             0.00%

Cover cuts applied:  45
Gomory fractional cuts applied:  2

Root node processing (before b&c):
  Real time             =    0.01 sec. (3.88 ticks)
Sequential b&c:
  Real time             =    0.06 sec. (56.32 ticks)
                          ------------
Total (root+branch&cut) =    0.07 sec. (60.20 ticks)

Solution pool: 11 solutions saved.

MIP - Integer optimal, tolerance (0.0001/1e-06):  Objective =  4.1913000000e+04
Current MIP best bound =  4.1911333333e+04 (gap = 1.66667, 0.00%)
Solution time =    0.07 sec.  Iterations = 1436  Nodes = 806 (421)
Deterministic time = 60.20 ticks  (839.62 ticks/sec)


Incumbent solution written to file '/tmp/tmpOG_1tZ.cplex.sol'.
